[TITLE]

[JUNCTIONS]
 J411                                  8.9500
 J414                                 34.3600
 J417                                 37.3800
 J418                                 37.3900
 J419                                 40.5000
 J314                                 14.9400
 J211                                 11.2700
 J212                                  7.8700
 J214                                  8.6700
 J217                                 10.9800
 J218                                  7.6800
 J110                                 15.9200
 J420                                 39.9900
 J421                                 37.0900
 J422                                 38.8100
 J1153                                22.1400
 J1154                                14.6100
 J1155                                15.5400
 J1157                                22.2100
 J1158                                28.2500
 J1056                                 7.6400
 J1160                                24.9100
 J431                                 16.9000
 J432                                 19.8800
 J433                                 27.3500
 J434                                 16.4800
 J435                                 12.1500
 J438                                 10.4300
 J332                                 44.1800
 J336                                 23.8100
 J337                                 22.1100
 J444                                 29.4600
 J341                                 14.8900
 J154                                 43.6900
 J155                                 44.4100
 J156                                 56.1600
 J159                                 37.4100
 J365                                 29.8300
 J366                                 14.4600
 J367                                 13.6000
 J369                                 20.2700
 J160                                 43.6900
 J95                                  22.5600
 J96                                  30.0000
 J97                                  34.1900
 J370                                 20.4600
 J1219                                14.4800
 J171                                  8.8100
 J172                                  6.2500
 J173                                 13.0000
 J175                                  6.8400
 J177                                 13.1400
 J179                                 15.0100
 J180                                  8.7700
 J181                                 10.9400
 J1025                                 8.6100
 J186                                  9.3800
 J187                                  9.8100
 J408                                  7.9300
 J192                                 12.4000
 J194                                 13.4600
 J196                                 13.3500
 J308                                 33.2400
 J200                                 15.7500
 J199                                 16.2600
 J201                                 44.8600
 J202                                 10.4100
 J203                                 11.0300
 J204                                 21.5100
 J205                                 16.6600
 J206                                 14.1200
 J208                                 11.2500
 J101                                 28.6500
 J102                                 46.9600
 J109                                 17.4700
 J2                                   11.9700
 J3                                   29.0200
 J4                                   20.8800
 J5                                   22.7500
 J7                                   24.9100
 J8                                   31.1700
 J9                                   31.8900
 J11                                  18.4300
 J12                                  29.2700
 J13                                  32.0400
 J14                                  37.9100
 J24                                  34.5300
 J39                                  45.8800
 J137                                  9.1100
 J269                                 56.0000
 J273                                 56.0000
 J274                                 56.0000
 J276                                 56.0000
 J280                                 56.0000
 J285                                 56.0000
 J287                                 40.0000
 J288                                 40.0000
 J511                                105.0800
 J415                                 65.0000
 J416                                 42.6000
 J425                                 64.4200
 J426                                 72.7100
 J427                                 67.6500
 J233                                 74.2300
 J234                                 64.0600
 J132                                 74.5500
 J134                                 80.7000
 J135                                 70.0000
 J441                                 69.0000
 J363                                 72.2300
 J364                                 65.0000
 J571                                 77.1100
 J575                                 75.2700
 J576                                 80.8000
 J371                                 68.8100
 J580                                113.0800
 J486                                 86.1100
 J488                                 89.1600
 J489                                 85.0200
 J385                                 76.6000
 J490                                103.8400
 J491                                 76.9300
 J492                                 94.6700
 J493                                 77.6200
 J494                                112.7600
 J495                                 91.1500
 J496                                106.3400
 J497                                112.6300
 J498                                 90.1200
 J503                                 99.6500
 J509                                 99.9400
 J22                                  82.7400
 J23                                  75.9600
 J289                                 40.0000
 J290                                 40.0000
 J291                                 65.0000
 J350                                 33.8200
 J94                                  30.7500
 J123                                 38.4100
 J140                                 39.9400
 J141                                 41.4500
 J157                                 31.4900
 J168                                 40.2100
 J176                                 50.6400
 J185                                 43.7100
 J190                                 58.4900
 J197                                 41.8600
 J216                                 53.0600
 J227                                 52.8900
 J238                                 44.1600
 J239                                 43.4900
 J255                                 35.3100
 J256                                 40.0000
 J260                                 32.5300
 J145                                 47.4600
 J292                                 40.0000
 J299                                 40.0000
 J300                                 40.0000
 J311                                 55.9500
 J312                                 68.4800
 J318                                 53.6700
 J320                                 46.7300
 J327                                 49.6800
 J328                                 45.6900
 J329                                 44.0500
 J221                                 97.0700
 J50                                  71.8000
 J51                                  77.4200
 J330                                 58.2500
 J331                                 59.2600
 J232                                 69.8100
 J348                                 62.1800
 J349                                 36.4100
 J351                                 25.5100
 J352                                 47.5500
 J353                                 22.6400
 J355                                 28.8700
 J358                                 22.3000
 J359                                 17.5700
 J82                                  70.8700
 J83                                  61.0700
 J360                                 20.7100
 J361                                 26.6700
 J362                                 43.6600
 J1208                                42.7400
 J381                                 36.0200
 J382                                 70.4200
 J384                                 42.5100
 J297                                 99.0500
 J298                                 77.4600
 J230                                 30.0000
 J235                                 53.0000
 J307                                 44.0000
 J309                                 44.0000
 J317                                 44.0000
 J323                                 44.0000
 J219                                 52.0000
 J53                                  85.0000
 J55                                  71.0000
 J56                                  72.0000
 J57                                  59.0000
 J58                                  76.0000
 J59                                  57.0000
 J236                                 58.0000
 J237                                 73.1400
 J60                                  55.0000
 J62                                  60.0000
 J64                                  82.0000
 J66                                  72.0000
 J67                                  81.0000
 J242                                 65.0000
 J243                                 60.0000
 J244                                 70.0000
 J245                                 71.0000
 J246                                 55.0000
 J247                                 57.0000
 J248                                 54.0000
 J249                                 50.0000
 J250                                 67.0000
 J84                                  43.8200
 J85                                  45.0000
 J86                                  50.0000
 J87                                  42.6300
 J118                                 75.0000
 J301                                 44.0000
 J302                                 44.0000
 J304                                 44.0000
 J306                                 44.0000

[RESERVOIRS]
 R1                                   59.0000                                

[TANKS]
 T1                                   71.5000       3.0000       0.0000       6.5000      31.3000       0.0000                                
 T2                                   65.0000       0.5000       0.0000       5.9000      20.7800       0.0000                                
 T4                                  132.5000       2.5000       0.0000       4.7000      11.6400       0.0000                                
 T3                                  112.9000       3.0000       0.0000       6.7500      13.7300       0.0000                                
 T7                                  102.0000       2.5000       0.0000       5.0000       7.1400       0.0000                                
 T6                                  101.5000       5.2000       0.0000       5.5000       8.3300       0.0000                                
 T5                                  105.8000       1.0000       0.0000       4.5000      11.8900       0.0000                                

[PIPES]
 P100                            J159                            J160                                107.8800     406.0000     125.1132       0.0000       
 P1000                           J341                            J204                                109.2700     203.0000     120.7287       0.0000       
 P102                            J109                            J408                               1280.3000     508.0000     125.0350       0.0000       
 P103                            J2                              J1219                                35.9800     254.0000     123.9694       0.0000       
 P106                            J102                            J101                                270.3800     102.0000     122.1875       0.0000       
 P107                            J171                            J172                                357.0000     203.0000     123.5287       0.0000       
 P108                            J101                            J109                                183.5300     203.0000     123.5287       0.0000       
 P109                            J175                            J172                                218.5200     203.0000     123.5287       0.0000       
 P110                            J179                            J177                                425.8300     508.0000     125.1374       0.0000       
 P113                            J137                            J181                                310.7300     152.0000     122.9623       0.0000       
 P115                            J408                            J435                                 99.8800     102.0000     122.1875       0.0000       
 P116                            J186                            J187                                204.5400     152.0000     122.9623       0.0000       
 P117                            J435                            J431                                104.0000     102.0000     122.1875       0.0000       
 P118                            J431                            J432                                115.9100     102.0000     122.1875       0.0000       
 P12                             J208                            J337                                 85.2400     406.0000     122.0505       0.0000       
 P120                            J432                            J1160                                91.4000     102.0000     122.1875       0.0000       
 P122                            J173                            J194                                 45.0600     305.0000     124.3300       0.0000       
 P123                            J1160                           J3                                   51.2100     152.0000     122.9623       0.0000       
 P13                             J337                            J24                                  62.5600     406.0000     117.2173       0.0000       
 P134                            J4                              J5                                   68.7900      76.0000     121.6220       0.0000       
 P136                            J5                              J431                                241.7700     102.0000     122.1875       0.0000       
 P138                            J203                            J217                                 19.2800     254.0000     118.7476       0.0000       
 P139                            J208                            J211                                 73.6600     406.0000     119.6095       0.0000       
 P14                             J24                             J39                                 151.3900     406.0000     117.2173       0.0000       
 P15                             J39                             T1                                  395.2900     406.0000     125.2725       0.0000       
 P159                            J204                            J336                                118.7800     203.0000     123.5287       0.0000       
 P17                             J408                            J1025                                32.4200     508.0000     125.0444       0.0000       
 P18                             J1025                           J411                                283.3000     508.0000     125.0444       0.0000       
 P19                             J411                            J1056                               750.8700     508.0000     124.4929       0.0000       
 P195                            J7                              J4                                  144.3300      76.0000     121.6220       0.0000       
 P2                              J175                            J181                                295.2500     203.0000     123.5287       0.0000       
 P20                             J1056                           J214                                579.6700     508.0000     124.1171       0.0000       
 P201                            J7                              J8                                  102.1900      76.0000     121.6220       0.0000       
 P21                             J214                            J212                                176.4800     406.0000     124.6266       0.0000       
 P215                            J419                            T2                                  140.7600     254.0000     123.5230       0.0000       
 P22                             J159                            J192                                567.3000     406.0000     125.6947       0.0000       
 P23                             J192                            J196                                316.9100     508.0000     122.4519       0.0000       
 P235                            J336                            J337                                 92.7400      76.0000     121.6220       0.0000       
 P24                             J177                            J194                                 71.0500     508.0000     126.4723       0.0000       
 P25                             J196                            J194                                  4.3000     508.0000     122.5435       0.0000       
 P255                            J369                            J370                                 76.1400      51.0000     120.8658       0.0000       
 P272                            J8                              J9                                  143.8800     102.0000     122.1875       0.0000       
 P287                            J419                            J420                                 45.1200     254.0000     122.3037       0.0000       
 P296                            J432                            J433                                231.8700      76.0000     121.6220       0.0000       
 P297                            J411                            J438                                 42.5300     406.0000     115.7172       0.0000       
 P298                            J438                            J434                                 40.1100     305.0000     124.2060       0.0000       
 P3                              J181                            J173                                136.5200     300.0000     124.2974       0.0000       
 P301                            J434                            J11                                  45.3100     305.0000     124.0132       0.0000       
 P302                            J11                             J433                                178.2800     305.0000     124.0378       0.0000       
 P307                            J433                            J12                                  47.3000     305.0000     122.4735       0.0000       
 P31                             J171                            J186                                144.6700     152.0000     122.9623       0.0000       
 P310                            J269                            J156                                  9.0000     610.0000     118.0389       0.0000       
 P316                            R1                              J280                                 11.6200     610.0000     122.8076       0.0000       
 P319                            J274                            J269                                 10.5400     610.0000     125.6995       0.0000       
 P32                             J186                            J2                                   84.4400     152.0000     122.9623       0.0000       
 P320                            J273                            J269                                 11.4700     610.0000     125.6995       0.0000       
 P322                            J280                            J285                                 11.5000     610.0000     125.6995       0.0000       
 P323                            J280                            J276                                 11.4700     610.0000     125.6995       0.0000       
 P33                             J1219                           J179                                 22.8100     254.0000     123.9694       0.0000       
 P34                             J179                            J110                                 98.0000     508.0000     125.0444       0.0000       
 P374                            J287                            J288                                 15.8300     254.0000     123.9694       0.0000       
 P375                            J288                            J300                                  7.7900     254.0000     123.9694       0.0000       
 P379                            J287                            J289                                  6.4300     254.0000     123.9694       0.0000       
 P397                            J332                            J301                                 13.1600     203.2000     123.5307       0.0000       
 P399                            J302                            J307                                  9.7100     203.2000     123.5307       0.0000       
 P443                            J13                             J12                                  67.3100     305.0000     124.0358       0.0000       
 P445                            J417                            J421                                  7.8000     254.0000     123.2843       0.0000       
 P446                            J418                            J421                                 31.1500     254.0000     123.9694       0.0000 CV    
 P450                            J418                            J422                                 19.4700     254.0000     123.9694       0.0000       
 P465                            J421                            J14                                  18.2000     254.0000     123.6223       0.0000       
 P467                            J422                            J420                                 15.1700     254.0000     123.6439       0.0000       
 P468                            J420                            J287                                 31.2900     254.0000     123.9694       0.0000       
 P482                            J9                              J3                                  321.8900     152.0000     122.9623       0.0000       
 P484                            J438                            J13                                 336.5700     203.0000     123.5287       0.0000       
 P6                              J180                            J171                                199.3900     152.0000     122.9623       0.0000       
 P63                             J96                             J95                                 165.9500     254.0000     123.9694       0.0000       
 P64                             J96                             J97                                 126.6300     203.0000     123.5287       0.0000       
 P67                             J97                             J102                                330.2400     203.0000     123.5287       0.0000       
 P7                              J218                            J211                                 60.2200     508.0000     124.9944       0.0000       
 P72                             J95                             J110                                247.4600     305.0000     124.3300       0.0000       
 P789                            J1056                           J366                                285.9500     203.0000     123.5287       0.0000       
 P8                              J218                            J212                                 11.3500     406.0000     129.5728       0.0000       
 P817                            J1158                           J1153                               253.3000     203.0000     123.5287       0.0000       
 P819                            J1153                           J1157                                 8.0200     203.0000     123.5287       0.0000       
 P83                             J155                            J160                                 15.1400     610.0000     125.3641       0.0000       
 P87                             J187                            J137                                 80.0300     203.0000     123.5287       0.0000       
 P892                            J414                            J13                                  30.3900     254.0000     123.6686       0.0000       
 P9                              J212                            J217                                 49.9500     254.0000     118.7001       0.0000       
 P92                             J137                            J180                                 63.1200     203.0000     123.5287       0.0000       
 P96                             J414                            J417                                 53.7200     254.0000     123.6328       0.0000       
 P961                            J444                            J366                                234.5500     203.0000     123.5287       0.0000       
 P963                            J366                            J205                                 93.5400     203.0000     123.5287       0.0000       
 P964                            J205                            J369                                129.9100     152.0000     122.9623       0.0000       
 P965                            J205                            J367                                135.0600     203.0000     123.5287       0.0000       
 P966                            J367                            J206                                 31.3200     203.0000     123.5287       0.0000       
 P967                            J206                            J200                                207.5400     203.0000     123.5287       0.0000       
 P969                            J200                            J1154                               149.1600     203.0000     123.5287       0.0000       
 P97                             J154                            J155                                 24.4100     610.0000     127.8714       0.0000       
 P970                            J1154                           J199                                165.0400     203.0000     123.5287       0.0000       
 P971                            J367                            J370                                136.9400     152.0000     122.9623       0.0000       
 P972                            J370                            J1158                               219.4200     152.0000     122.9623       0.0000       
 P973                            J1158                           J365                                164.6800     203.0000     123.5287       0.0000       
 P974                            J365                            J444                                186.4000     203.0000     123.5287       0.0000       
 P975                            J369                            J365                                159.5600     152.0000     122.9623       0.0000       
 P98                             J156                            J154                                174.5300     610.0000     132.9687       0.0000       
 P989                            J1153                           J1155                                91.5900      51.0000     120.8658       0.0000       
 P99                             J110                            J109                                452.3700     508.0000     124.8017       0.0000       
 P990                            J1155                           J1154                                78.8700     102.0000     122.1875       0.0000       
 P991                            J214                            J202                                 20.2500     203.0000     123.5287       0.0000       
 P992                            J202                            J314                                 69.1500     203.0000     123.5287       0.0000       
 P993                            J314                            J199                                 63.5200     203.0000     123.5287       0.0000       
 P994                            J199                            J1157                               115.3900     203.0000     123.5287       0.0000       
 P995                            J1157                           J201                                228.9900     152.0000     122.9623       0.0000       
 P996                            J332                            J201                                 10.2200     203.0000     123.5287       0.0000       
 P997                            J201                            J308                                154.8700     203.0000     119.8654       0.0000       
 P998                            J308                            J204                                107.9800     203.0000     118.3142       0.0000       
 P999                            J203                            J341                                 81.6700     254.0000     121.1710       0.0000       
 P1016                           J22                             J233                                164.7700     305.0000     125.0212       0.0000       
 P1025                           J575                            J132                                 39.1800      76.0000     122.4627       0.0000       
 P1026                           J132                            J493                                 45.6100      76.0000     122.4627       0.0000       
 P1027                           J486                            J488                                 82.3200      51.0000     121.7507       0.0000       
 P1028                           J489                            J486                                  9.5700      51.0000     121.7507       0.0000       
 P1029                           J489                            J492                                122.6200      76.0000     122.4627       0.0000       
 P1030                           J493                            J489                                 95.2500      76.0000     122.4627       0.0000       
 P1031                           J494                            J490                                188.2800     152.0000     123.7282       0.0000       
 P1032                           J490                            J492                                143.2900     152.0000     123.7282       0.0000       
 P148                            J233                            J234                                561.6900     305.0000     122.1447       0.0000       
 P165                            J135                            J234                                143.8100     305.0000     124.2060       0.0000       
 P237                            J415                            J441                                 12.0100     305.0000     122.5208       0.0000       
 P238                            J441                            J416                                 12.5900     304.8000     125.0200       0.0000       
 P252                            J363                            J364                                135.4400     305.0000     125.0212       0.0000       
 P256                            J371                            J364                                 55.1700     305.0000     125.0212       0.0000       
 P291                            J425                            J426                                132.9400     305.0000     125.0212       0.0000       
 P292                            J416                            J427                                 13.5400     305.0000     125.0212       0.0000       
 P293                            J427                            J425                                125.2000     305.0000     122.5208       0.0000       
 P308                            J426                            J363                                334.5700     305.0000     125.0212       0.0000       
 P336                            J495                            J496                                182.9900     152.0000     123.7282       0.0000       
 P337                            J497                            J494                                 20.4900     305.0000     125.0212       0.0000       
 P340                            J494                            J496                                 96.2100     305.0000     125.0212       0.0000       
 P341                            J496                            J498                                189.7400     305.0000     124.9712       0.0000       
 P343                            J495                            J576                                111.6500     152.0000     123.7282       0.0000       
 P344                            J576                            J571                                 45.2600     152.0000     123.7282       0.0000       
 P347                            J509                            T4                                  385.5600     305.0000     125.0212       0.0000       
 P348                            J503                            J509                                 42.4700     305.0000     125.0212       0.0000       
 P349                            J503                            J511                                 39.1200     305.0000     125.6167       0.0000       
 P380                            J289                            J290                                  4.7900     254.0000     124.6818       0.0000       
 P381                            J291                            J415                                  5.5300     304.8000     125.0225       0.0000       
 P383                            J571                            J491                                 19.5600     152.0000     123.7282       0.0000       
 P384                            J491                            J575                                 26.1400      76.0000     122.4627       0.0000       
 P385                            J498                            J134                                106.5300     305.0000     122.5208       0.0000       
 P386                            J134                            J576                                  8.1200     152.0000     123.7282       0.0000       
 P39                             J490                            J488                                190.1200     102.0000     122.9961       0.0000       
 P524                            J511                            J580                                170.5400     305.0000     125.0212       0.0000       
 P527                            J580                            J497                                149.0400     305.0000     125.0212       0.0000       
 P54                             J488                            J491                                111.6700      51.0000     121.7507       0.0000       
 P86                             J134                            J135                                161.0000     305.0000     122.5208       0.0000       
 P933                            J371                            J23                                 130.5400     305.0000     125.0212       0.0000       
 P934                            J23                             J385                                 18.4600     254.0000     122.1856       0.0000       
 P935                            J385                            J22                                 152.1300     305.0000     121.4796       0.0000       
 P376                            J300                            J299                                  6.6400     254.0000     124.8561       0.0000       
 P378                            J292                            J256                                  6.4700     254.0000     124.8561       0.0000       
 P755                            J140                            J141                                 47.1200     305.0000     125.1935       0.0000       
 P756                            J123                            J141                                 41.6600     305.0000     125.1935       0.0000       
 P763                            J141                            J157                                387.5900     305.0000     125.1935       0.0000       
 P767                            J157                            J94                                 227.5000     305.0000     125.1935       0.0000       
 P769                            J94                             J168                                154.2600     305.0000     125.1935       0.0000       
 P772                            J168                            J176                                215.0200     305.0000     125.1935       0.0000       
 P777                            J176                            J185                                402.3100     305.0000     125.1935       0.0000       
 P779                            J185                            J190                                524.4900     203.0000     124.4443       0.0000       
 P783                            J190                            J197                                674.9600     203.0000     124.4443       0.0000       
 P786                            J197                            J216                                166.2700     203.0000     124.4443       0.0000       
 P787                            J216                            T3                                  127.0800     102.0000     123.1305       0.0000       
 P788                            J216                            J227                                107.8500     152.0000     123.8555       0.0000       
 P791                            J227                            J238                                 82.5000     152.0000     124.0356       0.0000       
 P794                            J238                            J239                                 39.0400     203.0000     124.4443       0.0000       
 P795                            J239                            J255                                129.4100     203.0000     124.4443       0.0000       
 P796                            J256                            J238                                 22.4200     203.0000     131.9472       0.0000       
 P798                            J255                            J260                                684.0700     203.0000     124.4443       0.0000       
 P807                            J260                            J350                                162.8200     203.0000     124.4443       0.0000       
 P94                             J123                            J145                                 51.3500     305.0000     125.1935       0.0000       
 P95                             J140                            J145                                 50.7000     305.0000     125.1935       0.0000       
 P11                             J318                            J235                                 83.4500     101.6000     122.0251       0.0000       
 P141                            J221                            J51                                 169.9400     102.0000     122.0327       0.0000       
 P144                            J382                            T6                                  130.7900      76.0000     121.9646       0.0000       
 P150                            J82                             J50                                  93.1900     152.0000     122.8158       0.0000       
 P16                             J1208                           J353                                252.3400     102.0000     122.5169       0.0000       
 P161                            J361                            J355                                 40.3100      76.0000     121.4610       0.0000       
 P166                            J352                            J382                                235.0000     101.6000     122.5095       0.0000       
 P184                            J1208                           J352                                 59.3800     101.6000     123.2246       0.0000       
 P228                            J327                            J328                                 42.7200      76.0000     121.4610       0.0000       
 P230                            J330                            J327                                114.6100      76.0000     121.4610       0.0000       
 P231                            J331                            J330                                 12.2100      76.0000     121.4610       0.0000       
 P249                            J359                            J360                                 28.4300      51.0000     120.6963       0.0000       
 P251                            J329                            J362                                 11.4900     152.0000     123.2743       0.0000       
 P309                            J235                            J230                                128.8000     101.6000     122.0251       0.0000       
 P35                             J50                             J51                                  64.5600     152.0000     122.8158       0.0000       
 P402                            J307                            J309                                  6.1200     203.2000     123.3900       0.0000       
 P410                            J323                            J317                                  7.7000     203.2000     123.3900       0.0000       
 P424                            J317                            J384                                 27.8000     203.2000     124.7144       0.0000       
 P53                             J384                            J1208                                10.3200     203.0000     124.6247       0.0000       
 P55                             J82                             J83                                  99.8600      76.0000     121.4610       0.0000       
 P65                             J353                            J351                                164.9300     102.0000     122.0327       0.0000       
 P752                            J297                            T7                                   70.3600     152.0000     123.2743       0.0000       
 P753                            J297                            J221                                 71.9100     152.0000     123.2743       0.0000       
 P759                            J221                            J298                                 97.1900     152.0000     123.2743       0.0000       
 P760                            J298                            J312                                 88.5400     152.0000     123.2743       0.0000       
 P761                            J312                            J83                                 171.2700     152.0000     123.2743       0.0000       
 P781                            J83                             J318                                130.1800     152.0000     122.8158       0.0000       
 P808                            J83                             J311                                253.4700     203.0000     123.8283       0.0000       
 P813                            J328                            J320                                 30.8500     152.0000     126.5682       0.0000       
 P815                            J329                            J328                                 50.5200     102.0000     123.1501       0.0000       
 P840                            J311                            J320                                235.2800     203.0000     123.8283       0.0000       
 P841                            J297                            J331                                347.8300      76.0000     121.4610       0.0000       
 P915                            J1208                           J362                                 10.5800     152.0000     123.2743       0.0000       
 P976                            J359                            J358                                 83.3300      76.0000     121.4610       0.0000       
 P978                            J358                            J355                                178.9700      76.0000     121.4610       0.0000       
 P981                            J361                            J351                                 36.1900      76.0000     121.4610       0.0000       
 P982                            J351                            J349                                 87.2400     203.0000     123.3880       0.0000       
 P983                            J349                            J352                                180.2000     101.6000     122.0251       0.0000       
 P984                            J349                            J381                                 16.0300     101.6000     122.0251       0.0000       
 P986                            J381                            J348                                229.5400     101.6000     122.0251       0.0000       
 P987                            J348                            J232                                 94.5600     101.6000     122.0251       0.0000       
 P988                            J232                            J382                                  9.7400     101.6000     122.0251       0.0000       
 P1044                           T5                              J64                                  65.8000     203.0000     121.6160       0.0000       
 P1045                           J64                             J53                                  68.6300     203.0000     121.6160       0.0000       
 P154                            J245                            J66                                 170.6400     152.0000     118.7281       0.0000       
 P155                            J60                             J219                                 59.3800     101.6000     125.2623       0.0000       
 P156                            J242                            J243                                 80.3400     102.0000     122.8163       0.0000       
 P157                            J244                            J245                                232.9300     102.0000     122.8163       0.0000       
 P158                            J236                            J246                                 69.8800      76.0000     122.2758       0.0000       
 P160                            J248                            J246                                 68.6800      76.0000     122.2758       0.0000       
 P162                            J249                            J85                                 190.6700     152.0000     116.3071       0.0000       
 P245                            J87                             J84                                  18.6500     152.4000     120.9419       0.0000       
 P246                            J249                            J250                                 56.9400     152.4000     120.3131       0.0000       
 P248                            J250                            J245                                  6.9600     152.4000     123.5600       0.0000       
 P266                            J250                            J242                                 55.2900     101.6000     122.8090       0.0000       
 P372                            J219                            J86                                   6.4200     101.6000     125.2623       0.0000       
 P38                             J55                             J56                                 169.4900      76.0000     122.2758       0.0000       
 P398                            J301                            J302                                  6.7500     203.2000     124.1025       0.0000       
 P40                             J59                             J60                                 143.6400     102.0000     122.8134       0.0000       
 P403                            J304                            J306                                  6.8600     152.4000     123.5628       0.0000       
 P409                            J306                            J87                                  26.3800     152.4000     119.0231       0.0000       
 P44                             J66                             J67                                 247.6500     152.0000     121.3367       0.0000       
 P492                            J86                             J243                                157.3200     101.6000     122.8090       0.0000       
 P57                             J84                             J85                                 288.7700     152.0000     116.2490       0.0000       
 P58                             J86                             J84                                 503.9100     102.0000     117.9500       0.0000       
 P596                            J56                             J58                                  76.3900      76.0000     122.2758       0.0000       
 P609                            J57                             J56                                  86.0700      76.0000     122.2758       0.0000       
 P823                            J236                            J237                                 18.8400      76.0000     122.2758       0.0000       
 P826                            J237                            J244                                335.2900      76.0000     122.2758       0.0000       
 P827                            J244                            J247                                119.0700      76.0000     122.2758       0.0000       
 P830                            J247                            J248                                 89.3000      76.0000     122.2758       0.0000       
 P831                            J248                            J249                                 62.2000      76.0000     122.2758       0.0000       
 P842                            J62                             J55                                  64.4100      52.0000     121.5888       0.0000       
 P844                            J59                             J62                                  12.4900     102.0000     122.8163       0.0000       
 P846                            J58                             J118                                 94.8400     203.0000     124.1006       0.0000       
 P847                            J55                             J118                                 68.6300     152.0000     123.5579       0.0000       
 P850                            J59                             J57                                 241.1300     101.6000     122.8090       0.0000       
 P851                            J62                             J57                                 228.7800      76.0000     122.2758       0.0000       
 P852                            J58                             J67                                  40.3900     203.0000     124.1006       0.0000       
 P853                            J67                             J53                                 295.6800     203.0000     121.7234       0.0000       

[PUMPS]
 PU1                             J285                            J273                             HEAD Curve_PU1
 PU2                             J280                            J269                             HEAD Curve_PU2
 PU3                             J276                            J274                             HEAD Curve_PU1  SPEED 0.0000
 PU6                             J289                            J415                             HEAD Curve_PU7  SPEED 0.0000
 PU7                             J290                            J291                             HEAD Curve_PU7
 PU4                             J299                            J292                             HEAD Curve_PU4
 PU5                             J300                            J256                             HEAD Curve_PU4  SPEED 0.0000
 PU10                            J307                            J317                             HEAD Curve_PU10
 PU11                            J309                            J323                             HEAD Curve_PU10  SPEED 0.0000
 PU8                             J301                            J304                             HEAD Curve_PU8
 PU9                             J302                            J306                             HEAD Curve_PU8  SPEED 0.0000

[VALVES]
 V2                              J14                             J422                                254.0000   TCV       22.0000       0.0000

[DEMANDS]
 J411                                  1.891232  pat_DMA1                       
 J414                                  2.054028  pat_DMA1                       
 J417                                  2.745911  pat_DMA1                       
 J418                                  0.000000                                
 J419                                  0.000000                                
 J314                                  5.859385  pat_DMA1                       
 J211                                  3.366571  pat_DMA1                       
 J212                                  1.290922  pat_DMA1                       
 J214                                  1.860708  pat_DMA1                       
 J217                                  2.719203  pat_DMA1                       
 J218                                 19.560961  pat_DMA1                       
 J110                                  1.661028  pat_DMA1                       
 J420                                  0.000000                                
 J421                                  2.207921  pat_DMA1                       
 J422                                  0.000000                                
 J1153                                 0.934805  pat_DMA1                       
 J1154                                 0.990767  pat_DMA1                       
 J1155                                 2.941775  pat_DMA1                       
 J1157                                 3.495027  pat_DMA1                       
 J1158                                 0.803805  pat_DMA1                       
 J1056                                 2.397426  pat_DMA1                       
 J1160                                 3.681988  pat_DMA1                       
 J431                                  2.244805  pat_DMA1                       
 J432                                  0.736398  pat_DMA1                       
 J433                                  0.658815  pat_DMA1                       
 J434                                  2.068018  pat_DMA1                       
 J435                                 14.079313  pat_DMA1                       
 J438                                  3.210134  pat_DMA1                       
 J332                                  2.815863  pat_DMA1                       
 J336                                  6.329968  pat_DMA1                       
 J337                                  1.989164  pat_DMA1                       
 J444                                  1.681378  pat_DMA1                       
 J341                                  0.911912  pat_DMA1                       
 J154                                  1.168825  pat_DMA1                       
 J155                                  0.338311  pat_DMA1                       
 J156                                  0.601582  pat_DMA1                       
 J159                                  0.967873  pat_DMA1                       
 J365                                  2.800601  pat_DMA1                       
 J366                                  1.054359  pat_DMA1                       
 J367                                  1.702999  pat_DMA1                       
 J369                                  0.903009  pat_DMA1                       
 J160                                  1.206980  pat_DMA1                       
 J95                                   0.286165  pat_DMA1                       
 J96                                   2.248620  pat_DMA1                       
 J97                                   1.453718  pat_DMA1                       
 J370                                  0.778369  pat_DMA1                       
 J1219                                 6.083230  pat_DMA1                       
 J171                                  2.929057  pat_DMA1                       
 J172                                  2.383436  pat_DMA1                       
 J173                                  2.558950  pat_DMA1                       
 J175                                  4.737619  pat_DMA1                       
 J177                                  1.755145  pat_DMA1                       
 J179                                  1.463892  pat_DMA1                       
 J180                                  1.736067  pat_DMA1                       
 J181                                  2.413960  pat_DMA1                       
 J1025                                 9.802102  pat_DMA1                       
 J186                                  1.037825  pat_DMA1                       
 J187                                  1.846718  pat_DMA1                       
 J408                                  1.889960  pat_DMA1                       
 J192                                  4.081348  pat_DMA1                       
 J194                                  2.644164  pat_DMA1                       
 J196                                  20.61971  pat_DMA1                       
 J308                                  2.527154  pat_DMA1                       
 J200                                  1.584718  pat_DMA1                       
 J199                                  1.424465  pat_DMA1                       
 J201                                  0.975504  pat_DMA1                       
 J202                                  3.492484  pat_DMA1                       
 J203                                  2.845115  pat_DMA1                       
 J204                                  2.467377  pat_DMA1                       
 J205                                  1.480426  pat_DMA1                       
 J206                                  3.586600  pat_DMA1                       
 J208                                  1.264213  pat_DMA1                       
 J101                                  1.536388  pat_DMA1                       
 J102                                  3.350037  pat_DMA1                       
 J109                                  0.431155  pat_DMA1                       
 J2                                    1.232417  pat_DMA1                       
 J3                                    0.370107  pat_DMA1                       
 J4                                    0.657543  pat_DMA1                       
 J5                                    0.275990  pat_DMA1                       
 J7                                    6.973521  pat_DMA1                       
 J8                                    1.921756  pat_DMA1                       
 J9                                    1.752601  pat_DMA1                       
 J11                                   0.772009  pat_DMA1                       
 J12                                   1.343067  pat_DMA1                       
 J13                                   1.402844  pat_DMA1                       
 J14                                   0.000000                                
 J24                                   2.851474  pat_DMA1                       
 J39                                   2.392339  pat_DMA1                       
 J137                                  3.079134  pat_DMA1                       
 J269                                  0.000000                                
 J273                                  0.000000                                
 J274                                  0.000000                                
 J276                                  0.000000                                
 J280                                  0.000000                                
 J285                                  0.000000                                
 J287                                  0.000000                                
 J288                                  0.000000                                
 J511                                  2.603473  pat_DMA2                       
 J415                                  0.000000                                
 J416                                  0.000000                                
 J425                                  0.000000                                
 J426                                  0.000000                                
 J427                                  0.000000                                
 J233                                  0.000000                                
 J234                                  0.066212  pat_DMA2                       
 J132                                  3.750272  pat_DMA2                       
 J134                                  1.304385  pat_DMA2                       
 J135                                  1.493752  pat_DMA2                       
 J441                                  0.000000                                
 J363                                  0.000000                                
 J364                                  0.000000                                
 J571                                  4.858668  pat_DMA2                       
 J575                                  0.550887  pat_DMA2                       
 J576                                  1.771845  pat_DMA2                       
 J371                                  0.000000                                
 J580                                 13.250432  pat_DMA2                       
 J486                                  2.222089  pat_DMA2                       
 J488                                  2.004912  pat_DMA2                       
 J489                                  3.006044  pat_DMA2                       
 J385                                 43.967704  pat_DMA2                       
 J490                                  2.157201  pat_DMA2                       
 J491                                  1.341464  pat_DMA2                       
 J492                                 39.152736  pat_DMA2                       
 J493                                  1.763899  pat_DMA2                       
 J494                                  0.703176  pat_DMA2                       
 J495                                  2.524018  pat_DMA2                       
 J496                                  2.758410  pat_DMA2                       
 J497                                  2.265789  pat_DMA2                       
 J498                                  2.886862  pat_DMA2                       
 J503                                  8.326876  pat_DMA2                       
 J509                                  3.590038  pat_DMA2                       
 J22                                   0.000000                                
 J23                                   0.000000                                
 J289                                  0.000000                                
 J290                                  0.000000                                
 J291                                  0.000000                                
 J350                                  0.586091  pat_DMA3                       
 J94                                   1.657488  pat_DMA3                       
 J123                                  2.674110  pat_DMA3                       
 J140                                  1.271873  pat_DMA3                       
 J141                                  0.375756  pat_DMA3                       
 J157                                  5.347125  pat_DMA3                       
 J168                                  3.352224  pat_DMA3                       
 J176                                  1.063728  pat_DMA3                       
 J185                                  1.556702  pat_DMA3                       
 J190                                  4.046769  pat_DMA3                       
 J197                                  0.324267  pat_DMA3                       
 J216                                  2.593043  pat_DMA3                       
 J227                                  3.873681  pat_DMA3                       
 J238                                  0.572945  pat_DMA3                       
 J239                                  2.737649  pat_DMA3                       
 J255                                  1.138222  pat_DMA3                       
 J256                                  0.000000                                
 J260                                  9.097014  pat_DMA3                       
 J145                                  0.790949  pat_DMA3                       
 J292                                  0.000000                                
 J299                                  0.000000                                
 J300                                  0.000000                                
 J311                                  4.662347  pat_DMA4                       
 J312                                  1.405512  pat_DMA4                       
 J318                                 10.658833  pat_DMA4                       
 J320                                  5.764796  pat_DMA4                       
 J327                                  0.048314  pat_DMA4                       
 J328                                  0.306358  pat_DMA4                       
 J329                                  0.315142  pat_DMA4                       
 J221                                  0.870759  pat_DMA4                       
 J50                                   1.169430  pat_DMA4                       
 J51                                   5.082903  pat_DMA4                       
 J330                                  1.159548  pat_DMA4                       
 J331                                  0.886131  pat_DMA4                       
 J232                                  4.922587  pat_DMA4                       
 J348                                  3.419347  pat_DMA4                       
 J349                                  2.002855  pat_DMA4                       
 J351                                  2.077523  pat_DMA4                       
 J352                                  1.390139  pat_DMA4                       
 J353                                  4.239596  pat_DMA4                       
 J355                                  2.155485  pat_DMA4                       
 J358                                  2.842868  pat_DMA4                       
 J359                                  1.622927  pat_DMA4                       
 J82                                   1.805205  pat_DMA4                       
 J83                                   2.839574  pat_DMA4                       
 J360                                  2.062150  pat_DMA4                       
 J361                                  0.785110  pat_DMA4                       
 J362                                  0.275612  pat_DMA4                       
 J1208                                 0.720325  pat_DMA4                       
 J381                                  1.655869  pat_DMA4                       
 J382                                  1.558142  pat_DMA4                       
 J384                                  0.000000                                
 J297                                  1.717360  pat_DMA4                       
 J298                                  0.663226  pat_DMA4                       
 J230                                  2.445371  pat_DMA4                       
 J235                                  0.464478  pat_DMA4                       
 J307                                  0.000000                                
 J309                                  0.000000                                
 J317                                  0.000000                                
 J323                                  0.000000                                
 J219                                  4.381944  pat_DMA5                       
 J53                                   2.987175  pat_DMA5                       
 J55                                   0.876389  pat_DMA5                       
 J56                                   0.512733  pat_DMA5                       
 J57                                   2.036249  pat_DMA5                       
 J58                                   1.291996  pat_DMA5                       
 J59                                   1.299901  pat_DMA5                       
 J236                                  1.710991  pat_DMA5                       
 J237                                  2.885532  pat_DMA5                       
 J60                                   1.458013  pat_DMA5                       
 J62                                   0.849284  pat_DMA5                       
 J64                                   0.943021  pat_DMA5                       
 J66                                   3.083172  pat_DMA5                       
 J67                                  17.571820  pat_DMA5                       
 J242                                  2.823417  pat_DMA5                       
 J243                                  0.337681  pat_DMA5                       
 J244                                  2.468796  pat_DMA5                       
 J245                                  1.447848  pat_DMA5                       
 J246                                  2.373929  pat_DMA5                       
 J247                                  1.877008  pat_DMA5                       
 J248                                  2.622390  pat_DMA5                       
 J249                                  0.058727  pat_DMA5                       
 J250                                  0.282342  pat_DMA5                       
 J84                                   0.308317  pat_DMA5                       
 J85                                   1.398156  pat_DMA5                       
 J86                                   2.747750  pat_DMA5                       
 J87                                   2.363765  pat_DMA5                       
 J118                                  0.817662  pat_DMA5                       
 J301                                  0.000000                                
 J302                                  0.000000                                
 J304                                  0.000000                                
 J306                                  0.000000                                

[EMITTERS]

[STATUS]
 PU3                             closed
 PU6                             closed
 PU5                             closed
 PU11                            closed
 PU9                             closed




[PATTERNS]

pat_DMA1 1.00333	0.771874916	0.810097058	0.599875279	0.551035875	0.453357069	0.674196109	0.783553904	0.941751101	1.121182822	1.22098508
pat_DMA1 1.201874009	1.383429182	1.216738176	1.350515671	1.252836865	1.222046806	1.2623924	1.40891061	1.439700668	1.556490545	1.556490545
pat_DMA1 1.458811739	0.982096695	0.816467415	0.752763845	0.511752007	0.847257474	0.922640031	0.915207947	1.125429726	1.072343418	1.178516034
pat_DMA1 1.189133295	1.398293349	1.218861628	1.22098508	1.105256929	1.048985443	0.977849791	1.029874372	0.981034969	1.009701575	1.182762939
pat_DMA1 1.22947889	1.102071751	1.225231985	1.196565379	1.280441745	1.065973062	0.79841807	0.719850334	0.554221053	0.473529866	0.771874916
pat_DMA1 0.686936824	0.875924079	1.046861991	1.309108351	1.134985262	1.076590323	1.107380382	1.044738538	1.092516215	1.087207585	1.301676269
pat_DMA1 1.156219784	1.239034425	1.293182459	1.384490908	1.390861266	1.472614179	1.050047169	0.718788609	0.917331399	0.723035513	0.524492722
pat_DMA1 0.884417888	0.827084677	1.310170077	1.116935917	1.129676631	1.347330493	1.166837046	1.31760216	1.384490908	1.128614905	1.200812283
pat_DMA1 1.155158059	0.717726882	1.178516034	0.996960861	1.350515671	1.524638761	1.183824665	1.297429363	1.001207766	0.886541341	0.891849972
pat_DMA1 0.590319743	0.509628555	0.945998006	0.752763845	1.394046444	1.525700487	1.078713775	0.750640393	0.68799855	0.558467959	1.528885666
pat_DMA1 0.415134927	0.78992426	1.121182822	1.166837046	1.161528416	1.455626561	1.586218878	1.425898228	1.322910792	1.21567645	1.250713413
pat_DMA1 0.910961042	0.957676994	0.783553904	0.631727063	0.581825934	0.775060095	0.82602295	0.879109257	1.298491089	1.028812645	1.196565379
pat_DMA1 1.198688831	1.11587419	1.068096513	1.01925711	1.026689194	1.072343418	1.056417526	1.171083952	1.273009662	1.532070844	1.540564653
pat_DMA1 1.313355256	1.2623924	0.788862534	0.799479796	0.804788427	0.654023313	0.868491997	0.999084314	0.870615449	0.967232529	1.08296068
pat_DMA1 1.343083587	1.075528597	1.27619484	1.244343055	0.85362783	0.965109076	0.974664612	1.025627467	0.878047531	1.226293711	1.190195021
pat_DMA1 1.385552634	1.497033881



 pat_DMA2       1	0.740181269	0.701913394	0.59919436	0.515609265	0.581067472	0.654582074	0.721047331	0.808660624	0.931520644	1.088620342
pat_DMA2 1.19939577	1.069486405	1.27693857	1.083585095	1.320241692	1.238670695	1.288016112	1.129909365	1.071500503	1.213494461	1.064451158
pat_DMA2 1.243705941	1.129909365	1.129909365	1.105740181	0.761329305	0.540785498	0.680765358	0.764350453	0.921450151	0.992950654	1.103726082
pat_DMA2 1.246727089	1.246727089	1.281973816	1.057401813	1.172205438	1.226586102	1.201409869	1.017119839	0.988922457	0.93856999	0.967774421
pat_DMA2 1.131923464	1.134944612	1.19939577	1.16918429	1.104733132	1.191339375	0.777442095	0.577039275	0.515609265	0.451158107	0.519637462
pat_DMA2 0.743202417	0.942598187	1.180261833	1.117824773	1.020140987	1.067472306	1.103726082	1.053373615	1.21550856	1.043303122	1.022155085
pat_DMA2 1.16817724	1.346424974	1.239677744	1.274924471	1.361530715	1.325276938	1.057401813	0.797583082	0.778449144	0.534743202	0.567975831
pat_DMA2 0.636455186	0.637462235	0.750251762	0.971802618	1.311178247	1.257804632	1.023162135	1.116817724	1.087613293	1.102719033	1.144008056
pat_DMA2 1.121852971	0.872104733	0.854984894	0.916414904	1.068479355	1.342396777	1.117824773	1.267875126	1.203423968	0.821752266	0.778449144
pat_DMA2 0.638469285	0.550855992	0.651560927	0.785498489	1.029204431	1.301107754	1.264853978	1.066465257	0.994964753	0.981873112	0.822759315
pat_DMA2 0.827794562	0.818731118	1.120845921	1.16918429	1.057401813	1.294058409	1.294058409	1.415911379	1.372608257	1.365558912	1.072507553
pat_DMA2 0.911379658	0.797583082	0.706948641	0.614300101	0.560926485	0.757301107	0.895266868	1.033232628	1.1530715	0.964753273	0.930513595
pat_DMA2 1.087613293	1.04531722	1.109768378	1.116817724	1.136958711	1.093655589	1.054380664	1.178247734	1.281973816	1.281973816	1.346424974
pat_DMA2 1.146022155	0.950654582	0.733131923	0.768378651	0.656596173	0.529707956	0.624370594	0.84592145	0.856998993	1.03021148	1.126888217
pat_DMA2 1.248741188	1.07653575	1.087613293	1.167170191	0.906344411	0.954682779	0.933534743	1.064451158	1.080563947	1.201409869	1.26082578
pat_DMA2 1.325276938	1.490433031


 pat_DMA3          1	0.898305084	0.78087167	0.644067797	0.635593221	0.71912833	0.78692494	0.923728813	1.095641646	1.334140437	1.47094431
 pat_DMA3 1.364406779	1.289346247	1.392251817	1.308716708	1.445520581	1.411622276	1.191283294	1.163438256	1.197336562	1.300242132	1.266343826
  pat_DMA3 1.322033898	1.200968523	1.117433414	0.951573851	0.814769976	1.012106537	0.855932203	0.957627118	1.095641646	1.300242132	1.50605327
 pat_DMA3 1.604116222	1.490314769	1.234866828	1.303874093	1.269975787	1.181598063	1.163438256	1.266343826	1.232445521	1.266343826	1.334140437
 pat_DMA3 1.451573851	1.220338984	1.337772398	1.460048427	1.342615013	1.376513318	1.044794188	0.753026635	0.61622276	0.582324455	0.820823245
 pat_DMA3 0.820823245	0.992736078	1.369249394	1.539951575	1.421307507	1.352300242	1.284503631	1.303874093	1.289346247	1.369249394	1.369249394
  pat_DMA3 1.300242132	1.608958838	1.437046005	1.410411622	1.524213075	1.303874093	1.200968523	0.898305084	0.882566586	0.78692494	0.71912833
  pat_DMA3 0.78692494	0.78692494	1.300242132	1.197336562	1.369249394	1.276029055	1.205811138	1.342615013	1.514527846	1.342615013	1.422518161
 pat_DMA3 1.50605327	1.163438256	1.334140437	1.197336562	1.334140437	1.291767555	1.352300242	1.269975787	1.200968523	1.083535109	0.893462469
 pat_DMA3 0.71912833	0.650121065	0.855932203	0.78692494	1.197336562	1.745762713	1.640435836	1.562953995	1.533898305	1.313559321	1.294188862
 pat_DMA3 1.455205812	1.369249394	1.266343826	1.163438256	1.197336562	1.608958838	1.605326877	1.66101695	1.406779661	1.474576271	1.440677966
 pat_DMA3 1.244552058	0.957627118	0.753026635	0.650121065	0.753026635	0.855932203	1.095641646	1.026634383	1.4031477	1.311138015	1.10290557
 pat_DMA3 1.239709443	1.308716708	1.225181599	1.320823245	1.300242132	1.369249394	1.163438256	1.437046005	1.642857143	1.56779661	1.592009685
 pat_DMA3 1.372881355	1.303874093	1.015738498	0.990314769	0.923728813	0.68401937	0.923728813	1.060532688	1.095641646	1.197336562	1.61622276
 pat_DMA3 1.577481841	1.392251817	1.205811138	1.191283294	1.088377724	1.504842615	1.4031477	1.129539951	1.129539951	1.300242132	1.334140437
 pat_DMA3 1.410411622	1.592009685


 pat_DMA4           1	0.90864799	0.795371498	0.62362972	0.629719854	0.69183922	0.828258222	0.929354446	1.120584653	1.278928136	1.354445798
 pat_DMA4 1.428745432	1.488428745	1.488428745	1.359317905	1.299634592	1.601705237	1.634591961	1.347137637	1.294762485	1.444579781	1.423873325
 pat_DMA4 1.397076736	1.310596833	1.197320341	1.075517661	0.858708892	0.8136419	0.808769793	1.036540804	1.235079172	1.34226553	1.432399513
 pat_DMA4 1.443361754	1.445797808	1.512789281	1.459196102	1.224116931	1.132764921	1.104750304	1.115712546	1.164433618	1.170523751	1.231425091
 pat_DMA4 1.209500609	1.587088916	1.387332521	1.574908648	1.390986602	1.272838002	1.040194884	0.84409257	0.637028015	0.506699147     0.647990256
pat_DMA4  0.84774665	1.062119367	1.551766139	1.309378806	1.238733252	1.395858709	1.395858709	1.395858709	1.347137637	1.115712546	1.288672351
pat_DMA4 1.304506699	1.585870889	1.417783191	1.763702801	1.466504263	1.294762485	1.27771011	1.182704019	1.036540804	0.762484775	0.676004872
pat_DMA4 0.786845311	0.909866017	1.045066991	1.28501827	1.468940317	1.375152253	1.191230207	1.370280146	1.364190012	1.466504263	1.370280146
pat_DMA4 1.293544458	1.366626066	1.333739342	1.202192448	1.366626066	1.526187576	1.450669915	1.472594397	1.370280146	1.148599269	0.959805116
pat_DMA4 0.820950061	0.611449452	0.712545676	0.80998782	1.244823386	1.590742996	1.573690621	1.587088916	1.514007308	1.526187576	0.866017052
pat_DMA4 0.979293545	0.886723508	1.427527406	1.526187576	1.353227771	1.488428745	1.445797808	1.548112058	1.645554202	1.321559074	1.261875761
pat_DMA4 1.126674787	0.978075518	0.836784409	0.590742996	0.694275274	0.851400731	1.014616322	0.987819732	1.266747868	1.25091352	1.088915956
pat_DMA4 1.326431181	1.401948843	1.401948843	1.417783191	1.453105968	1.225334957	1.205846529	1.455542022	1.568818514	1.542021924	1.607795372
pat_DMA4 1.563946407	1.115712546	0.915956151	0.867235079	0.887941535	0.777101096	0.876979294	0.665042631	0.925700365	1.158343484	1.426309379
pat_DMA4 1.399512789	1.381242387	1.272838002	1.239951279	1.255785627	1.180267966	1.1863581	1.30816078	1.356881851	1.383678441	1.577344702
pat_DMA4 1.442143727	1.788063337


 pat_DMA5            1	0.843091335	0.717798595	0.495316159	0.552693208	0.6264637	0.695550351	0.956674473	1.131147541	1.182669789	1.319672131
pat_DMA5 1.403981265	1.43911007	1.317330211	1.278688525	1.43911007	1.56088993	1.522248243	1.395784543	1.306791569	1.044496487	0.991803279
pat_DMA5 1.096018735	1.434426229	1.309133489	1.065573771	0.809133489	0.825526932	0.588992974	1.026932084	1.166276347	1.131147541	1.426229508
pat_DMA5 1.325526932	1.31381733	1.296252927	1.204918033	1.238875878	1.169789227	1.117096019	0.976580796	1.166276347	1.2529274	1.131147541
pat_DMA5 1.166276347	1.118266979	1.56088993	1.31381733	1.418032787	1.296252927	0.895784543	0.539812646	0.573770492	0.591334895	0.783372365
pat_DMA5 0.852459016	0.956674473	1.304449649	1.175644028	1.31615925	1.31615925	1.259953162	1.259953162	1.259953162	1.117096019	1.154566745
pat_DMA5 1.2529274	1.565573771	1.565573771	1.512880562	1.522248243	1.238875878	1.204918033	0.822014051	0.987119438	0.587822014	0.661592506
pat_DMA5 0.834894613	0.870023419	1.200234192	1.270491803	1.305620609	1.370023419	1.317330211	1.456674473	1.525761124	1.192037471	1.261124122
pat_DMA5 1.382903981	1.477751756	1.288056206	1.270491803	1.148711944	1.24824356	1.31381733	1.225995316	1.192037471	1.052693208	1.012880562
pat_DMA5 0.844262295	0.591334895	0.817330211	0.783372365	1.148711944	1.478922717	1.014051522	1.334894613	1.334894613	1.451990632	1.334894613
pat_DMA5 1.334894613	1.228337236	1.357142857	1.565573771	1.270491803	1.359484778	1.430913349	1.730679157	1.587822014	1.487119438	1.291569087
pat_DMA5 1.065573771	0.74824356	0.56440281	0.695550351	0.677985949	0.834894613	0.956674473	1.148711944	1.345433255	1.317330211	1.070257611
pat_DMA5 1.456674473	1.139344262	1.208430913	1.139344262	1.420374707	1.200234192	1.131147541	1.443793911	1.576112412	1.665105386	1.557377049
pat_DMA5 1.469555035	1.139344262	0.8735363	0.786885246	0.728337236	0.677985949	0.852459016	0.956674473	1.096018735	1.521077283	1.421545667
pat_DMA5 1.43911007	1.156908665	1.330210773	1.225995316	1.070257611	1.065573771	1.428571428	1.288056206	1.270491803	1.270491803	1.447306792
pat_DMA5 1.679156909	1.552693208
  



[CURVES]
 Curve_PU1                             0.0000      68.2
 Curve_PU1                           241.2000      46.2
 Curve_PU1                           399.6000      21.2

 Curve_PU2                             0.0000      60.0
 Curve_PU2                           241.2000      36.0
 Curve_PU2                           399.6000      11.0

 Curve_PU7                             0.0000      100.6
 Curve_PU7                           118.8000      88.6
 Curve_PU7                           316.0000      11.1

 Curve_PU4                             0.0000      93.0
 Curve_PU4                           118.8000      68.0
 Curve_PU4                           201.6000      23.0

 Curve_PU10                            0.0000      78.0
 Curve_PU10                          118.8000      33.0
 Curve_PU10                          158.4000      12.0

 Curve_PU8                             0.0000      82.0
 Curve_PU8                           118.8000      57.0
 Curve_PU8                           201.6000      8.0

[CONTROLS]
 LINK PU2 1.0000 IF NODE T1 BELOW 1.0000
 LINK PU2 0.0000 IF NODE T1 ABOVE 4.5000
 LINK V2 22.0 IF NODE T2 BELOW 0.5000
 LINK V2 closed  IF NODE T2 ABOVE 5.5000
 LINK PU4 1.0000 IF NODE T3 BELOW 3.0000
 LINK PU4 0.0000 IF NODE T3 ABOVE 5.3000
 LINK PU8 1.0000 IF NODE T5 BELOW 1.5000
 LINK PU8 0.0000 IF NODE T5 ABOVE 4.5000
 LINK PU7 1.0000 IF NODE T4 BELOW 3.0000
 LINK PU7 0.0000 IF NODE T4 ABOVE 4.5000
 LINK PU10 1.0000 IF NODE T7 BELOW 2.5000
 LINK PU10 0.0000 IF NODE T7 ABOVE 4.8000


[RULES]

[QUALITY]

[SOURCES]

[MIXING]
 T1                              MIXED          1.0000
 T2                              MIXED          1.0000
 T4                              MIXED          1.0000
 T3                              MIXED          1.0000
 T7                              MIXED          1.0000
 T6                              MIXED          1.0000
 T5                              MIXED          1.0000

[REACTIONS]
 ORDER  BULK            1.00
 ORDER  WALL            1
 ORDER  TANK            1.00
 GLOBAL BULK            0.000000
 GLOBAL WALL            0.000000

[ENERGY]
 GLOBAL EFFIC        70.0000
 DEMAND CHARGE       0.0000
 PUMP PU1                             PRICE   1.0000
 PUMP PU2                             PRICE   1.0000
 PUMP PU3                             PRICE   1.0000

[TIMES]
 DURATION            167:00:00
 HYDRAULIC TIMESTEP  1:00:00
 QUALITY TIMESTEP    1:00:00
 REPORT TIMESTEP     1:00:00
 REPORT START        0:00:00
 PATTERN TIMESTEP    1:00:00
 PATTERN START       0:00:00
 RULE TIMESTEP       0:06:00
 START CLOCKTIME     0:00:00
 STATISTIC           NONE

[OPTIONS]
 UNITS               CMH
 PRESSURE            METERS
 HEADLOSS            H-W
 UNBALANCED          CONTINUE 10
 QUALITY             NONE
 DEMAND MULTIPLIER   1.0000
 EMITTER EXPONENT    0.5000
 VISCOSITY           1.000000
 DIFFUSIVITY         1.000000
 SPECIFIC GRAVITY    1.000000
 TRIALS              100
 ACCURACY            0.01000000
 TOLERANCE           0.01000000
 CHECKFREQ           2
 MAXCHECK            10
 DAMPLIMIT           0.00000000

[REPORT]
 PAGESIZE            0
 STATUS              NO
 SUMMARY             NO
 ENERGY              NO
 MESSAGES            YES
 NODES               NONE
 LINKS               NONE
 Elevation           NO
 Demand              PRECISION 2
 Head                PRECISION 2
 Pressure            PRECISION 2
 Quality             NO
 Length              NO
 Diameter            NO
 Flow                PRECISION 2
 Velocity            PRECISION 2
 Headloss            PRECISION 2
 Quality             NO
 State               NO
 Setting             NO
 Reaction            NO

[COORDINATES]
 J411                            -248212.980000  148750.190000
 J414                            -247493.990000  148416.240000
 J417                            -247408.470000  148278.460000
 J418                            -246985.610000  148482.760000
 J419                            -246866.830000  148824.850000
 J314                            -248553.520000  149542.290000
 J211                            -248900.360000  149390.250000
 J212                            -248672.300000  149242.960000
 J214                            -248495.290000  148973.680000
 J217                            -248681.810000  149471.020000
 J218                            -248767.330000  149299.980000
 J110                            -247921.610000  147893.610000
 J420                            -246919.090000  148962.640000
 J421                            -247060.440000  148293.870000
 J422                            -246957.100000  148767.840000
 J1153                           -247793.320000  149509.030000
 J1154                           -247988.120000  149547.040000
 J1155                           -247874.090000  149551.790000
 J1157                           -247870.260000  149649.690000
 J1158                           -247931.110000  149437.760000
 J1056                           -248271.790000  148956.040000
 J1160                           -247379.970000  148131.170000
 J431                            -247802.830000  148088.410000
 J432                            -247579.520000  148159.680000
 J433                            -247741.060000  148235.700000
 J434                            -247935.860000  148487.510000
 J435                            -248007.130000  148107.410000
 J438                            -248026.130000  148644.300000
 J332                            -247538.970000  149631.290000
 J336                            -248648.550000  149912.890000
 J337                            -248857.600000  149722.840000
 J444                            -248244.690000  149157.440000
 J341                            -248610.540000  149798.860000
 J154                            -246391.710000  147798.580000
 J155                            -246500.980000  147798.580000
 J156                            -246301.430000  147793.830000
 J159                            -246692.340000  147821.470000
 J365                            -248230.440000  149309.480000
 J366                            -248344.470000  149247.710000
 J367                            -248477.500000  149399.750000
 J369                            -248287.450000  149361.740000
 J160                            -246577.000000  147812.840000
 J95                             -247774.320000  147884.110000
 J96                             -247622.280000  147950.620000
 J97                             -247717.300000  147964.880000
 J370                            -248173.420000  149447.260000
 J1219                           -247660.290000  147741.570000
 J171                            -247332.450000  147546.770000
 J172                            -247199.420000  147485.000000
 J173                            -247332.450000  147751.070000
 J175                            -247085.390000  147575.270000
 J177                            -247622.280000  147808.090000
 J179                            -247774.320000  147817.590000
 J180                            -247227.930000  147570.520000
 J181                            -247123.400000  147698.810000
 J1025                           -248225.690000  148468.510000
 J186                            -247413.220000  147627.540000
 J187                            -247265.940000  147622.790000
 J408                            -248235.190000  148268.960000
 J192                            -247033.120000  147850.850000
 J194                            -247493.990000  147793.830000
 J196                            -247375.210000  147850.850000
 J308                            -248005.220000  149796.930000
 J200                            -248149.670000  149547.040000
 J199                            -248250.620000  149698.770000
 J201                            -247741.420000  149704.910000
 J202                            -248591.530000  149366.490000
 J203                            -248734.070000  149594.550000
 J204                            -248306.460000  149798.860000
 J205                            -248472.750000  149314.230000
 J206                            -248339.720000  149513.780000
 J208                            -248843.350000  149613.560000
 J101                            -247926.360000  148017.140000
 J102                            -247812.330000  147993.380000
 J109                            -248045.140000  148007.640000
 J2                              -247536.760000  147694.060000
 J3                              -247265.940000  148064.650000
 J4                              -247508.250000  148007.640000
 J5                              -247641.280000  148045.650000
 J7                              -247170.910000  147964.880000
 J8                              -246990.360000  148221.440000
 J9                              -247109.140000  148164.430000
 J11                             -247836.080000  148411.490000
 J12                             -247579.520000  148363.980000
 J13                             -247731.560000  148554.030000
 J14                             -247132.900000  148463.760000
 J24                             -249004.890000  149756.100000
 J39                             -249114.170000  149808.360000
 J137                            -247185.160000  147641.790000
 J269                            -246215.910000  147789.080000
 J273                            -246215.910000  147936.370000
 J274                            -246215.910000  147665.550000
 J276                            -246040.110000  147665.550000
 J280                            -246044.870000  147793.830000
 J285                            -246044.870000  147936.370000
 J287                            -246866.830000  149090.920000
 J288                            -246657.780000  149109.930000
 J511                            -246643.520000  150768.110000
 J415                            -246594.180000  149477.910000
 J416                            -246486.730000  149817.860000
 J425                            -246759.830000  149576.070000
 J426                            -246649.400000  149729.450000
 J427                            -246649.400000  149594.480000
 J233                            -246827.310000  149717.180000
 J234                            -246913.170000  149873.540000
 J132                            -247199.420000  150943.910000
 J134                            -246919.090000  150364.260000
 J135                            -246995.510000  149926.480000
 J441                            -246519.120000  149644.170000
 J363                            -246532.830000  149938.040000
 J364                            -246649.400000  149876.690000
 J571                            -247099.640000  150635.080000
 J575                            -247161.410000  150858.380000
 J576                            -246937.740000  150539.260000
 J371                            -246630.990000  150054.600000
 J580                            -246686.280000  150677.840000
 J486                            -246995.110000  150801.370000
 J488                            -246974.550000  150686.500000
 J489                            -247080.640000  150986.670000
 J385                            -246876.330000  150098.190000
 J490                            -246876.390000  150753.990000
 J491                            -247072.710000  150784.660000
 J492                            -246913.200000  150858.280000
 J493                            -247226.080000  151054.600000
 J494                            -246771.810000  150668.330000
 J495                            -246881.080000  150616.070000
 J496                            -246781.310000  150511.540000
 J497                            -246765.960000  150803.070000
 J498                            -246857.330000  150483.040000
 J503                            -246462.970000  150782.360000
 J509                            -246325.190000  150806.120000
 J22                             -246815.040000  149974.850000
 J23                             -246759.830000  150011.660000
 J289                            -246743.300000  149238.210000
 J290                            -246586.510000  149204.950000
 J291                            -246496.020000  149416.560000
 J350                            -246111.380000  149062.410000
 J94                             -245797.800000  148363.980000
 J123                            -245474.720000  148321.220000
 J140                            -245517.480000  148444.750000
 J141                            -245579.240000  148363.980000
 J157                            -245688.520000  148316.470000
 J168                            -245892.830000  148397.240000
 J176                            -245987.850000  148511.270000
 J185                            -246078.120000  148573.040000
 J190                            -246196.910000  148539.780000
 J197                            -246358.450000  148554.030000
 J216                            -246448.720000  148587.290000
 J227                            -246557.370000  148643.560000
 J238                            -246698.480000  148643.560000
 J239                            -246524.740000  148834.350000
 J255                            -246396.460000  148948.380000
 J256                            -246771.810000  148824.850000
 J260                            -246296.680000  148976.890000
 J145                            -245403.450000  148430.500000
 J292                            -246657.780000  148791.590000
 J299                            -246596.010000  148948.380000
 J300                            -246672.030000  149014.900000
 J311                            -247845.590000  148962.640000
 J312                            -247850.340000  149138.430000
 J318                            -247964.370000  148976.890000
 J320                            -247617.530000  148915.130000
 J327                            -247684.040000  148981.640000
 J328                            -247589.020000  149057.660000
 J329                            -247517.750000  149086.170000
 J221                            -247650.790000  149356.990000
 J50                             -247845.590000  149276.220000
 J51                             -247788.570000  149366.490000
 J330                            -247636.530000  149143.190000
 J331                            -247598.520000  149214.450000
 J232                            -247132.900000  148843.860000
 J348                            -247151.910000  148725.080000
 J349                            -247322.950000  148853.360000
 J351                            -247417.980000  148896.120000
 J352                            -247223.170000  149005.400000
 J353                            -247351.460000  149033.910000
 J355                            -247305.840000  148569.940000
 J358                            -247246.930000  148653.810000
 J359                            -247170.910000  148630.050000
 J82                             -247893.100000  149204.950000
 J83                             -247940.610000  149081.420000
 J360                            -247227.930000  148530.270000
 J361                            -247398.970000  148611.050000
 J362                            -247408.470000  149124.180000
 J1208                           -247256.430000  149157.440000
 J381                            -247322.950000  148739.330000
 J382                            -247118.650000  148948.380000
 J384                            -247161.410000  149214.450000
 J297                            -247536.760000  149299.980000
 J298                            -247712.550000  149242.960000
 J230                            -247956.140000  148717.180000
 J235                            -247969.120000  148829.600000
 J307                            -246942.850000  149566.050000
 J309                            -247094.890000  149613.560000
 J317                            -247023.620000  149361.740000
 J323                            -247170.910000  149409.250000
 J219                            -247413.220000  150126.690000
 J53                             -247612.780000  150639.830000
 J55                             -247802.770000  150140.490000
 J56                             -247608.020000  150250.230000
 J57                             -247527.250000  150155.200000
 J58                             -247688.800000  150388.010000
 J59                             -247551.010000  149960.400000
 J236                            -247281.300000  150502.450000
 J237                            -247408.470000  150445.030000
 J60                             -247484.490000  150055.420000
 J62                             -247650.790000  150131.440000
 J64                             -247565.260000  150720.600000
 J66                             -247612.780000  150426.020000
 J67                             -247630.990000  150551.530000
 J242                            -247322.950000  150226.470000
 J243                            -247342.650000  150152.760000
 J244                            -247470.240000  150364.260000
 J245                            -247551.240000  150367.490000
 J246                            -247037.880000  150516.300000
 J247                            -247170.870000  150477.910000
 J248                            -247033.120000  150316.740000
 J249                            -247208.920000  150378.510000
 J250                            -247299.190000  150311.990000
 J84                             -247189.270000  150152.760000
 J85                             -247201.540000  150269.330000
 J86                             -247256.430000  150050.670000
 J87                             -247056.880000  150026.920000
 J118                            -247765.960000  150269.330000
 J301                            -247232.220000  149649.690000
 J302                            -247066.380000  149722.840000
 J304                            -247394.220000  149827.360000
 J306                            -247265.940000  149903.380000
 R1                              -245840.560000  147793.830000
 T1                              -249114.170000  149950.900000
 T2                              -246845.710000  148674.230000
 T4                              -246160.350000  150738.120000
 T3                              -246422.400000  148459.510000
 T7                              -247541.510000  149418.760000
 T6                              -247033.120000  149124.180000
 T5                              -247570.010000  150863.140000

[VERTICES]

[END]
